(declare-const X String)
; Host\x3A\s+cyber@yahoo\x2Ecom\sWordSpy\-LockedURLBlaze
(assert (not (str.in_re X (re.++ (str.to_re "Host:") (re.+ (re.union (str.to_re " ") (str.to_re "\u{9}") (str.to_re "\u{a}") (str.to_re "\u{c}") (str.to_re "\u{d}"))) (str.to_re "cyber@yahoo.com") (re.union (str.to_re " ") (str.to_re "\u{9}") (str.to_re "\u{a}") (str.to_re "\u{c}") (str.to_re "\u{d}")) (str.to_re "WordSpy-LockedURLBlaze\u{a}")))))
; Host\x3a.*\x2Frss.*Desktopcargo=report\<\x2Ftitle\>
(assert (not (str.in_re X (re.++ (str.to_re "Host:") (re.* re.allchar) (str.to_re "/rss") (re.* re.allchar) (str.to_re "Desktopcargo=report</title>\u{a}")))))
; /filename=[^\n]*\x2ejfi/i
(assert (not (str.in_re X (re.++ (str.to_re "/filename=") (re.* (re.comp (str.to_re "\u{a}"))) (str.to_re ".jfi/i\u{a}")))))
(check-sat)
